NAME : LPS-n29-m141
COMMENT : (Lartu-Peter-Santi Plot, instance 10541 out of 39200. 29 customers.)
TYPE : CVRP
DIMENSION : 29
EDGE_WEIGHT_TYPE : EUC_2D
CAPACITY : 117
NODE_COORD_SECTION
 1 39 91
 2 40 98
 3 15 16
 4 79 83
 5 36 76
 6 16 60
 7 19 65
 8 89 38
 9 5 69
 10 24 54
 11 51 19
 12 39 42
 13 30 51
 14 58 4
 15 37 26
 16 79 40
 17 95 7
 18 60 51
 19 50 25
 20 70 38
 21 30 98
 22 2 17
 23 82 27
 24 54 29
 25 55 96
 26 95 48
 27 48 51
 28 33 17
 29 56 79
DEMAND_SECTION
1 0
2 65
3 101
4 46
5 73
6 12
7 74
8 16
9 112
10 63
11 68
12 43
13 49
14 64
15 46
16 54
17 48
18 51
19 63
20 26
21 68
22 51
23 10
24 72
25 93
26 25
27 115
28 23
29 57
DEPOT_SECTION
 1
 -1
EOF
